RT is False
Default write of storage_offers_DA.csv just to have a file (but constraint should be inactive)
Reading model...
...model read.
creating competitive generators file...
...competitive generators recorded.
Loading data...
.. day-ahead data with real-time VRE data read.
Compiling instance...
...instance created.
Creating Offer Mitigation (model will solve as dispatch if TRUE)...
NOTE: storage offers will not be mitigated
...storage offer mitigation file created
Converting model to MPEC...
...converted
NOTE: initial MIP solve with only storage competitive to get feasible solution
Solving...

Welcome to IBM(R) ILOG(R) CPLEX(R) Interactive Optimizer 12.9.0.0
  with Simplex, Mixed Integer & Barrier Optimizers
5725-A06 5725-A29 5724-Y48 5724-Y49 5724-Y54 5724-Y55 5655-Y21
Copyright IBM Corp. 1988, 2019.  All Rights Reserved.

Type 'help' for a list of available commands.
Type 'help' followed by a command name for more
information on commands.

CPLEX> Logfile 'cplex.log' closed.
Logfile 'C:\Users\llavin\Desktop\test919\logs\tmpztqtzrk6.cplex.log' open.
CPLEX> New value for parallel optimization mode: -1
CPLEX> New value for mixed integer optimality gap tolerance: 0.01
CPLEX> New value for integrality tolerance: 1e-09
CPLEX> New value for feasibility tolerance: 0.1
CPLEX> New value for deterministic time limit in ticks: 100000
CPLEX> Problem 'C:\Users\llavin\Desktop\test919\logs\tmp5frc5p6j.pyomo.lp' read.
Read time = 0.22 sec. (13.86 ticks)
CPLEX> Problem name         : C:\Users\llavin\Desktop\test919\logs\tmp5frc5p6j.pyomo.lp
Objective sense      : Maximize
Variables            :   53321  [Nneg: 1,  Box: 21806,  Free: 4416,
                                 Binary: 27098]
Objective nonzeros   :    8980
Linear constraints   :  122164  [Less: 40983,  Greater: 58612,  Equal: 22569]
  Nonzeros           :  288505
  RHS nonzeros       :   66982

Variables            : Min LB: -5000.000        Max UB: 1000000.       
Objective nonzeros   : Min   : 0.3833333        Max   : 819.6250       
Linear constraints   :
  Nonzeros           : Min   : 0.3833333        Max   : 1000000.       
  RHS nonzeros       : Min   : 0.3833333        Max   : 1000000.       
CPLEX> CPXPARAM_Parallel                                -1
CPXPARAM_Simplex_Tolerances_Feasibility          0.10000000000000001
CPXPARAM_DetTimeLimit                            100000
CPXPARAM_MIP_Tolerances_MIPGap                   0.01
CPXPARAM_MIP_Tolerances_Integrality              1.0000000000000001e-09
Tried aggregator 3 times.
MIP Presolve eliminated 88045 rows and 18901 columns.
MIP Presolve added 3379 rows and 0 columns.
MIP Presolve modified 23297 coefficients.
Aggregator did 12870 substitutions.
Reduced MIP has 24628 rows, 20994 columns, and 68997 nonzeros.
Reduced MIP has 8303 binaries, 0 generals, 0 SOSs, and 0 indicators.
Presolve time = 0.30 sec. (173.04 ticks)
Probing fixed 439 vars, tightened 2949 bounds.
Probing time = 1.26 sec. (918.39 ticks)
Tried aggregator 2 times.
MIP Presolve eliminated 981 rows and 880 columns.
MIP Presolve modified 2190 coefficients.
Aggregator did 49 substitutions.
Reduced MIP has 23598 rows, 20065 columns, and 65998 nonzeros.
Reduced MIP has 7864 binaries, 0 generals, 0 SOSs, and 0 indicators.
Presolve time = 0.11 sec. (68.71 ticks)
Probing time = 0.03 sec. (15.68 ticks)
Clique table members: 6319.
MIP emphasis: balance optimality and feasibility.
MIP search method: dynamic search.
Parallel mode: opportunistic, using up to 32 threads.
Root relaxation solution time = 0.33 sec. (304.76 ticks)

        Nodes                                         Cuts/
   Node  Left     Objective  IInf  Best Integer    Best Bound    ItCnt     Gap

      0     0     1138.1377  1111                   1138.1377     6833         
      0     0     1138.1377     1                     Cuts: 4     6834         
      0     0     1138.1377     1                 Flowcuts: 2     6835         
      0     2     1138.1377     1                   1138.1377     6835         
Elapsed time = 7.09 sec. (4545.05 ticks, tree = 0.02 MB, solutions = 2)
*     2     1      integral     0    -9694.5013     1138.1377     6853  111.74%
*     3     2      integral     0     1128.9741     1138.1377     6835    0.81%

Flow cuts applied:  2
Mixed integer rounding cuts applied:  2
Gomory fractional cuts applied:  1

Root node processing (before b&c):
  Real time             =    6.42 sec. (4515.36 ticks)
Parallel b&c, 32 threads:
  Real time             =    0.81 sec. (96.25 ticks)
  Sync time (average)   =    0.12 sec.
  Wait time (average)   =    0.00 sec.
                          ------------
Total (root+branch&cut) =    7.23 sec. (4611.60 ticks)

Solution pool: 2 solutions saved.

MIP - Integer optimal, tolerance (0.01/1e-06):  Objective =  1.1289741192e+03
Current MIP best bound =  1.1381376928e+03 (gap = 9.16357, 0.81%)
Solution time =    7.25 sec.  Iterations = 6855  Nodes = 5 (2)
Deterministic time = 4611.75 ticks  (636.10 ticks/sec)

CPLEX> Incumbent solution written to file 'C:\Users\llavin\Desktop\test919\logs\tmpeb5ypzta.cplex.sol'.
CPLEX> NOTE: no warmstart specified for MIP iteration, default behavior is true
NOTE: resolving with all competitive generators using storage-only solution to warmstart
Solving...

Welcome to IBM(R) ILOG(R) CPLEX(R) Interactive Optimizer 12.9.0.0
  with Simplex, Mixed Integer & Barrier Optimizers
5725-A06 5725-A29 5724-Y48 5724-Y49 5724-Y54 5724-Y55 5655-Y21
Copyright IBM Corp. 1988, 2019.  All Rights Reserved.

Type 'help' for a list of available commands.
Type 'help' followed by a command name for more
information on commands.

CPLEX> Logfile 'cplex.log' closed.
Logfile 'C:\Users\llavin\Desktop\test919\logs\tmpj2zrq94u.cplex.log' open.
CPLEX> New value for parallel optimization mode: -1
CPLEX> New value for mixed integer optimality gap tolerance: 0.01
CPLEX> New value for integrality tolerance: 1e-09
CPLEX> New value for feasibility tolerance: 0.1
CPLEX> New value for deterministic time limit in ticks: 100000
CPLEX> Problem 'C:\Users\llavin\Desktop\test919\logs\tmp3pjgwwoh.pyomo.lp' read.
Read time = 0.23 sec. (13.88 ticks)
CPLEX> MIP start file 'C:\Users\llavin\Desktop\test919\logs\tmpj6dtyx_k.cplex.mst' read.
CPLEX> Problem name         : C:\Users\llavin\Desktop\test919\logs\tmp3pjgwwoh.pyomo.lp
Objective sense      : Maximize
Variables            :   54041  [Nneg: 1,  Box: 22526,  Free: 4416,
                                 Binary: 27098]
Objective nonzeros   :    9700
Linear constraints   :  122164  [Less: 40983,  Greater: 58612,  Equal: 22569]
  Nonzeros           :  288505
  RHS nonzeros       :   66982

Variables            : Min LB: -5000.000        Max UB: 1000000.       
Objective nonzeros   : Min   : 0.3833333        Max   : 819.6250       
Linear constraints   :
  Nonzeros           : Min   : 0.3833333        Max   : 1000000.       
  RHS nonzeros       : Min   : 0.3833333        Max   : 1000000.       
CPLEX> CPXPARAM_Parallel                                -1
CPXPARAM_Simplex_Tolerances_Feasibility          0.10000000000000001
CPXPARAM_DetTimeLimit                            100000
CPXPARAM_MIP_Tolerances_MIPGap                   0.01
CPXPARAM_MIP_Tolerances_Integrality              1.0000000000000001e-09
Warning:  No solution found from 1 MIP starts.
Retaining values of one MIP start for possible repair.
Tried aggregator 3 times.
MIP Presolve eliminated 88045 rows and 19621 columns.
MIP Presolve added 3379 rows and 0 columns.
MIP Presolve modified 23297 coefficients.
Aggregator did 12870 substitutions.
Reduced MIP has 24628 rows, 20994 columns, and 68997 nonzeros.
Reduced MIP has 8303 binaries, 0 generals, 0 SOSs, and 0 indicators.
Presolve time = 0.30 sec. (173.40 ticks)
Probing fixed 439 vars, tightened 2949 bounds.
Probing time = 1.27 sec. (918.39 ticks)
Tried aggregator 2 times.
MIP Presolve eliminated 981 rows and 880 columns.
MIP Presolve modified 2190 coefficients.
Aggregator did 49 substitutions.
Reduced MIP has 23598 rows, 20065 columns, and 65998 nonzeros.
Reduced MIP has 7864 binaries, 0 generals, 0 SOSs, and 0 indicators.
Presolve time = 0.09 sec. (68.71 ticks)
Probing time = 0.05 sec. (15.68 ticks)
Clique table members: 6319.
MIP emphasis: balance optimality and feasibility.
MIP search method: dynamic search.
Parallel mode: opportunistic, using up to 32 threads.
Root relaxation solution time = 0.33 sec. (304.76 ticks)

        Nodes                                         Cuts/
   Node  Left     Objective  IInf  Best Integer    Best Bound    ItCnt     Gap

      0     0     1138.1377  1111                   1138.1377     6833         
      0     0     1138.1377     1                     Cuts: 4     6834         
      0     0     1138.1377     1                 Flowcuts: 2     6835         
Repair heuristic found nothing.
      0     2     1138.1377     1                   1138.1377     6835         
Elapsed time = 7.47 sec. (4663.25 ticks, tree = 0.02 MB, solutions = 2)
*     2     1      integral     0    -9694.5013     1138.1377     6853  111.74%
*     3     2      integral     0     1128.9741     1138.1377     6835    0.81%

Flow cuts applied:  2
Mixed integer rounding cuts applied:  2
Gomory fractional cuts applied:  1

Root node processing (before b&c):
  Real time             =    6.73 sec. (4633.58 ticks)
Parallel b&c, 32 threads:
  Real time             =    0.88 sec. (122.22 ticks)
  Sync time (average)   =    0.15 sec.
  Wait time (average)   =    0.00 sec.
                          ------------
Total (root+branch&cut) =    7.61 sec. (4755.80 ticks)

Solution pool: 2 solutions saved.

MIP - Integer optimal, tolerance (0.01/1e-06):  Objective =  1.1289741192e+03
Current MIP best bound =  1.1381376928e+03 (gap = 9.16357, 0.81%)
Solution time =    7.61 sec.  Iterations = 6855  Nodes = 5 (2)
Deterministic time = 4755.96 ticks  (624.96 ticks/sec)

CPLEX> Incumbent solution written to file 'C:\Users\llavin\Desktop\test919\logs\tmp_zmqx4be.cplex.sol'.
CPLEX> Exporting results... 
